\ENCODING=ISO-8859-1
\Problem name: IloCplex

Minimize
 obj1: 10 tp(0) + 10 tm(0) + 10 tp(1) + 10 tm(1) + 10 tp(2) + 10 tm(2)
       + 10 tp(3) + 10 tm(3) + 10 tp(4) + 10 tm(4) + 10 tp(5) + 10 tm(5)
       + 10 tp(6) + 10 tm(6) + 10 tp(7) + 10 tm(7) + 10 tp(8) + 10 tm(8)
       + 10 tp(9) + 10 tm(9) + 10 tp(10) + 10 tm(10) + 10 tp(11) + 10 tm(11)
       + 10 tp(12) + 10 tm(12) + 10 tp(13) + 10 tm(13) + 10 tp(14) + 10 tm(14)
       + 10 tp(15) + 10 tm(15) + 10 tp(16) + 10 tm(16) + 10 tp(17) + 10 tm(17)
       + 10 tp(18) + 10 tm(18) + 10 tp(19) + 10 tm(19) + 10 tp(20) + 10 tm(20)
       + 10 tp(21) + 10 tm(21) + 10 tp(22) + 10 tm(22) + 10 tp(23) + 10 tm(23)
       + 10 tp(24) + 10 tm(24) + 10 tp(25) + 10 tm(25) + 10 tp(26) + 10 tm(26)
       + 10 tp(27) + 10 tm(27) + 10 tp(28) + 10 tm(28) + 10 tp(29) + 10 tm(29)
       + 10 tp(30) + 10 tm(30) + 10 tp(31) + 10 tm(31) + 10 tp(32) + 10 tm(32)
       + 10 tp(33) + 10 tm(33) + 10 tp(34) + 10 tm(34) + 10 tp(35) + 10 tm(35)
       + 10 tp(36) + 10 tm(36) + 10 tp(37) + 10 tm(37) + 10 tp(38) + 10 tm(38)
       + 10 tp(39) + 10 tm(39) + 10 tp(40) + 10 tm(40) + 10 tp(41) + 10 tm(41)
       + 10 tp(42) + 10 tm(42) + 10 tp(43) + 10 tm(43) + 10 tp(44) + 10 tm(44)
       + 10 tp(45) + 10 tm(45) + 10 tp(46) + 10 tm(46) + 10 tp(47) + 10 tm(47)
       + 10 tp(48) + 10 tm(48) + 10 tp(49) + 10 tm(49) + [ w(8) ^2 + w(7) ^2
       + w(6) ^2 + w(5) ^2 + w(4) ^2 + w(3) ^2 + w(2) ^2 + w(1) ^2 + w(0) ^2
       ] / 2
Subject To
 c1:   - 2.36059255 w(8) + 0.25534776 w(7) + 1.77622686 w(6) - 0.41726449 w(5)
       + 0.31511548 w(4) + 0.27260539 w(3) - 1.87705254 w(2) - 1.71691 w(1)
       + 0.64892764 w(0) + z - pp(0) <= -3.62254454
 c2:   2.36059255 w(8) - 0.25534776 w(7) - 1.77622686 w(6) + 0.41726449 w(5)
       - 0.31511548 w(4) - 0.27260539 w(3) + 1.87705254 w(2) + 1.71691 w(1)
       - 0.64892764 w(0) - z - pm(0) <= 4.02254454
 c3:   tp(0) - pp(0) <= 0
 c4:   tp(0) - 45 s(0) <= 0
 c5:   tp(0) - pp(0) - 45 s(0) >= -45
 c6:   tm(0) - pm(0) <= 0
 c7:   tm(0) - 160 s(0) <= 0
 c8:   tm(0) - pm(0) - 160 s(0) >= -160
 c9:   0.31125713 w(8) - 1.60949899 w(7) - 0.26901553 w(6) + 0.09888127 w(5)
       - 0.90262468 w(4) - 1.5596962 w(3) + 0.56433749 w(2) - 0.01419401 w(1)
       - 0.59120363 w(0) + z - pp(1) <= -2.61627191
 c10:  - 0.31125713 w(8) + 1.60949899 w(7) + 0.26901553 w(6) - 0.09888127 w(5)
       + 0.90262468 w(4) + 1.5596962 w(3) - 0.56433749 w(2) + 0.01419401 w(1)
       + 0.59120363 w(0) - z - pm(1) <= 3.01627191
 c11:  tp(1) - pp(1) <= 0
 c12:  tp(1) - 45 s(1) <= 0
 c13:  tp(1) - pp(1) - 45 s(1) >= -45
 c14:  tm(1) - pm(1) <= 0
 c15:  tm(1) - 160 s(1) <= 0
 c16:  tm(1) - pm(1) - 160 s(1) >= -160
 c17:  0.56209671 w(8) + 1.45736627 w(7) - 2.2887204 w(6) + 0.2470921 w(5)
       - 0.95260867 w(4) + 0.05277178 w(3) + 0.17444223 w(2) + 2.31374115 w(1)
       - 0.58413655 w(0) + z - pp(2) <= 1.538463
 c18:  - 0.56209671 w(8) - 1.45736627 w(7) + 2.2887204 w(6) - 0.2470921 w(5)
       + 0.95260867 w(4) - 0.05277178 w(3) - 0.17444223 w(2) - 2.31374115 w(1)
       + 0.58413655 w(0) - z - pm(2) <= -1.138463
 c19:  tp(2) - pp(2) <= 0
 c20:  tp(2) - 45 s(2) <= 0
 c21:  tp(2) - pp(2) - 45 s(2) >= -45
 c22:  tm(2) - pm(2) <= 0
 c23:  tm(2) - 160 s(2) <= 0
 c24:  tm(2) - pm(2) - 160 s(2) >= -160
 c25:  1.85736686 w(8) + 0.23564738 w(7) + 0.4329216 w(6) + 1.07659257 w(5)
       - 0.90544339 w(4) + 0.51772253 w(3) - 1.32454691 w(2) - 0.92732847 w(1)
       + 0.16698602 w(0) + z - pp(3) <= -1.7950542
 c26:  - 1.85736686 w(8) - 0.23564738 w(7) - 0.4329216 w(6) - 1.07659257 w(5)
       + 0.90544339 w(4) - 0.51772253 w(3) + 1.32454691 w(2) + 0.92732847 w(1)
       - 0.16698602 w(0) - z - pm(3) <= 2.1950542
 c27:  tp(3) - pp(3) <= 0
 c28:  tp(3) - 45 s(3) <= 0
 c29:  tp(3) - pp(3) - 45 s(3) >= -45
 c30:  tm(3) - pm(3) <= 0
 c31:  tm(3) - 160 s(3) <= 0
 c32:  tm(3) - pm(3) - 160 s(3) >= -160
 c33:  1.70172231 w(8) + 1.75559659 w(7) + 2.949949 w(6) - 0.79825083 w(5)
       - 0.01759174 w(4) - 0.82609245 w(3) - 2.33832835 w(2) + 0.96091037 w(1)
       + 0.32828673 w(0) + z - pp(4) <= -2.88041508
 c34:  - 1.70172231 w(8) - 1.75559659 w(7) - 2.949949 w(6) + 0.79825083 w(5)
       + 0.01759174 w(4) + 0.82609245 w(3) + 2.33832835 w(2) - 0.96091037 w(1)
       - 0.32828673 w(0) - z - pm(4) <= 3.28041508
 c35:  tp(4) - pp(4) <= 0
 c36:  tp(4) - 45 s(4) <= 0
 c37:  tp(4) - pp(4) - 45 s(4) >= -45
 c38:  tm(4) - pm(4) <= 0
 c39:  tm(4) - 160 s(4) <= 0
 c40:  tm(4) - pm(4) - 160 s(4) >= -160
 c41:  - 0.31524027 w(8) - 1.00592362 w(7) + 0.86101714 w(6) - 1.34410685 w(5)
       + 0.1579669 w(4) + 0.04021693 w(3) - 0.00619502 w(2) - 1.54171701 w(1)
       - 0.55212928 w(0) + z - pp(5) <= -3.37944448
 c42:  0.31524027 w(8) + 1.00592362 w(7) - 0.86101714 w(6) + 1.34410685 w(5)
       - 0.1579669 w(4) - 0.04021693 w(3) + 0.00619502 w(2) + 1.54171701 w(1)
       + 0.55212928 w(0) - z - pm(5) <= 3.77944448
 c43:  tp(5) - pp(5) <= 0
 c44:  tp(5) - 45 s(5) <= 0
 c45:  tp(5) - pp(5) - 45 s(5) >= -45
 c46:  tm(5) - pm(5) <= 0
 c47:  tm(5) - 160 s(5) <= 0
 c48:  tm(5) - pm(5) - 160 s(5) >= -160
 c49:  - 1.46400498 w(8) - 1.15649497 w(7) - 1.95931807 w(6) + 1.27007069 w(5)
       - 0.37639666 w(4) + 0.67262431 w(3) - 0.79685538 w(2) - 0.04211186 w(1)
       - 0.10724514 w(0) + z - pp(6) <= 1.01041687
 c50:  1.46400498 w(8) + 1.15649497 w(7) + 1.95931807 w(6) - 1.27007069 w(5)
       + 0.37639666 w(4) - 0.67262431 w(3) + 0.79685538 w(2) + 0.04211186 w(1)
       + 0.10724514 w(0) - z - pm(6) <= -0.61041687
 c51:  tp(6) - pp(6) <= 0
 c52:  tp(6) - 45 s(6) <= 0
 c53:  tp(6) - pp(6) - 45 s(6) >= -45
 c54:  tm(6) - pm(6) <= 0
 c55:  tm(6) - 160 s(6) <= 0
 c56:  tm(6) - pm(6) - 160 s(6) >= -160
 c57:  0.70923547 w(8) + 0.35577605 w(7) - 1.05742185 w(6) + 1.11732028 w(5)
       + 0.44347382 w(4) + 0.36761987 w(3) - 2.61914259 w(2) - 0.18457036 w(1)
       + 0.27702522 w(0) + z - pp(7) <= -0.38510782
 c58:  - 0.70923547 w(8) - 0.35577605 w(7) + 1.05742185 w(6) - 1.11732028 w(5)
       - 0.44347382 w(4) - 0.36761987 w(3) + 2.61914259 w(2) + 0.18457036 w(1)
       - 0.27702522 w(0) - z - pm(7) <= 0.78510782
 c59:  tp(7) - pp(7) <= 0
 c60:  tp(7) - 45 s(7) <= 0
 c61:  tp(7) - pp(7) - 45 s(7) >= -45
 c62:  tm(7) - pm(7) <= 0
 c63:  tm(7) - 160 s(7) <= 0
 c64:  tm(7) - pm(7) - 160 s(7) >= -160
 c65:  - 1.28920819 w(8) - 0.2931216 w(7) - 0.94489977 w(6) - 0.16970622 w(5)
       - 1.95678324 w(4) + 0.55299106 w(3) + 1.27598705 w(2) - 2.07593376 w(1)
       - 0.43750473 w(0) + z - pp(8) <= -3.73504475
 c66:  1.28920819 w(8) + 0.2931216 w(7) + 0.94489977 w(6) + 0.16970622 w(5)
       + 1.95678324 w(4) - 0.55299106 w(3) - 1.27598705 w(2) + 2.07593376 w(1)
       + 0.43750473 w(0) - z - pm(8) <= 4.13504475
 c67:  tp(8) - pp(8) <= 0
 c68:  tp(8) - 45 s(8) <= 0
 c69:  tp(8) - pp(8) - 45 s(8) >= -45
 c70:  tm(8) - pm(8) <= 0
 c71:  tm(8) - 160 s(8) <= 0
 c72:  tm(8) - pm(8) - 160 s(8) >= -160
 c73:  0.72747676 w(8) + 0.8870641 w(7) + 0.69037918 w(6) - 0.46438471 w(5)
       - 0.13461722 w(4) - 1.05890466 w(3) + 0.55350259 w(2) + 0.97143035 w(1)
       - 0.57514176 w(0) + z - pp(9) <= -1.42974645
 c74:  - 0.72747676 w(8) - 0.8870641 w(7) - 0.69037918 w(6) + 0.46438471 w(5)
       + 0.13461722 w(4) + 1.05890466 w(3) - 0.55350259 w(2) - 0.97143035 w(1)
       + 0.57514176 w(0) - z - pm(9) <= 1.82974645
 c75:  tp(9) - pp(9) <= 0
 c76:  tp(9) - 45 s(9) <= 0
 c77:  tp(9) - pp(9) - 45 s(9) >= -45
 c78:  tm(9) - pm(9) <= 0
 c79:  tm(9) - 160 s(9) <= 0
 c80:  tm(9) - pm(9) - 160 s(9) >= -160
 c81:  - 0.6493643 w(8) + 1.01013696 w(7) + 0.20067705 w(6) + 0.39330261 w(5)
       + 0.62611316 w(4) - 0.33105826 w(3) - 0.67246965 w(2) - 1.62046338 w(1)
       + 0.34724443 w(0) + z - pp(10) <= -0.25066937
 c82:  0.6493643 w(8) - 1.01013696 w(7) - 0.20067705 w(6) - 0.39330261 w(5)
       - 0.62611316 w(4) + 0.33105826 w(3) + 0.67246965 w(2) + 1.62046338 w(1)
       - 0.34724443 w(0) - z - pm(10) <= 0.65066937
 c83:  tp(10) - pp(10) <= 0
 c84:  tp(10) - 45 s(10) <= 0
 c85:  tp(10) - pp(10) - 45 s(10) >= -45
 c86:  tm(10) - pm(10) <= 0
 c87:  tm(10) - 160 s(10) <= 0
 c88:  tm(10) - pm(10) - 160 s(10) >= -160
 c89:  0.30250121 w(8) + 1.78583258 w(7) - 0.47830618 w(6) - 0.71762783 w(5)
       + 1.17676824 w(4) + 0.99949879 w(3) + 0.62411127 w(2) + 0.6739524 w(1)
       - 1.13769713 w(0) + z - pp(11) <= 1.87349278
 c90:  - 0.30250121 w(8) - 1.78583258 w(7) + 0.47830618 w(6) + 0.71762783 w(5)
       - 1.17676824 w(4) - 0.99949879 w(3) - 0.62411127 w(2) - 0.6739524 w(1)
       + 1.13769713 w(0) - z - pm(11) <= -1.47349278
 c91:  tp(11) - pp(11) <= 0
 c92:  tp(11) - 45 s(11) <= 0
 c93:  tp(11) - pp(11) - 45 s(11) >= -45
 c94:  tm(11) - pm(11) <= 0
 c95:  tm(11) - 160 s(11) <= 0
 c96:  tm(11) - pm(11) - 160 s(11) >= -160
 c97:  - 1.87969976 w(8) + 0.13695953 w(7) + 0.76702821 w(6) - 0.90744511 w(5)
       + 0.09070527 w(4) - 1.06537428 w(3) + 0.23824383 w(2) - 0.65408504 w(1)
       + 0.11857582 w(0) + z - pp(12) <= -2.27172455
 c98:  1.87969976 w(8) - 0.13695953 w(7) - 0.76702821 w(6) + 0.90744511 w(5)
       - 0.09070527 w(4) + 1.06537428 w(3) - 0.23824383 w(2) + 0.65408504 w(1)
       - 0.11857582 w(0) - z - pm(12) <= 2.67172455
 c99:  tp(12) - pp(12) <= 0
 c100: tp(12) - 45 s(12) <= 0
 c101: tp(12) - pp(12) - 45 s(12) >= -45
 c102: tm(12) - pm(12) <= 0
 c103: tm(12) - 160 s(12) <= 0
 c104: tm(12) - pm(12) - 160 s(12) >= -160
 c105: - 0.68776179 w(8) + 1.15459933 w(7) - 1.01374334 w(6) - 1.44793479 w(5)
       + 0.53812856 w(4) + 1.00289742 w(3) - 0.94822747 w(2) + 0.2176994 w(1)
       - 0.0465138 w(0) + z - pp(13) <= -0.82587177
 c106: 0.68776179 w(8) - 1.15459933 w(7) + 1.01374334 w(6) + 1.44793479 w(5)
       - 0.53812856 w(4) - 1.00289742 w(3) + 0.94822747 w(2) - 0.2176994 w(1)
       + 0.0465138 w(0) - z - pm(13) <= 1.22587177
 c107: tp(13) - pp(13) <= 0
 c108: tp(13) - 45 s(13) <= 0
 c109: tp(13) - pp(13) - 45 s(13) >= -45
 c110: tm(13) - pm(13) <= 0
 c111: tm(13) - 160 s(13) <= 0
 c112: tm(13) - pm(13) - 160 s(13) >= -160
 c113: - 0.92487138 w(8) - 0.12141919 w(7) - 0.02312501 w(6) - 0.72316533 w(5)
       - 0.92778142 w(4) - 2.34719144 w(3) - 0.99940776 w(2) - 0.70975617 w(1)
       + 0.9206866 w(0) + z - pp(14) <= -5.36505898
 c114: 0.92487138 w(8) + 0.12141919 w(7) + 0.02312501 w(6) + 0.72316533 w(5)
       + 0.92778142 w(4) + 2.34719144 w(3) + 0.99940776 w(2) + 0.70975617 w(1)
       - 0.9206866 w(0) - z - pm(14) <= 5.76505898
 c115: tp(14) - pp(14) <= 0
 c116: tp(14) - 45 s(14) <= 0
 c117: tp(14) - pp(14) - 45 s(14) >= -45
 c118: tm(14) - pm(14) <= 0
 c119: tm(14) - 160 s(14) <= 0
 c120: tm(14) - pm(14) - 160 s(14) >= -160
 c121: - 0.96864069 w(8) + 1.27882671 w(7) + 0.67378105 w(6) + 1.0260607 w(5)
       - 1.25574218 w(4) + 0.79531532 w(3) + 2.22260038 w(2) + 0.95165784 w(1)
       - 0.47316064 w(0) + z - pp(15) <= 3.56252672
 c122: 0.96864069 w(8) - 1.27882671 w(7) - 0.67378105 w(6) - 1.0260607 w(5)
       + 1.25574218 w(4) - 0.79531532 w(3) - 2.22260038 w(2) - 0.95165784 w(1)
       + 0.47316064 w(0) - z - pm(15) <= -3.16252672
 c123: tp(15) - pp(15) <= 0
 c124: tp(15) - 45 s(15) <= 0
 c125: tp(15) - pp(15) - 45 s(15) >= -45
 c126: tm(15) - pm(15) <= 0
 c127: tm(15) - 160 s(15) <= 0
 c128: tm(15) - pm(15) - 160 s(15) >= -160
 c129: - 0.24133786 w(8) - 0.94498632 w(7) - 2.72728191 w(6) - 1.46261973 w(5)
       - 10.41920851 w(4) - 11.36357491 w(3) - 11.03449726 w(2)
       - 10.29535352 w(1) + 8.87237611 w(0) + z - pp(16) <= -14.17169881
 c130: 0.24133786 w(8) + 0.94498632 w(7) + 2.72728191 w(6) + 1.46261973 w(5)
       + 10.41920851 w(4) + 11.36357491 w(3) + 11.03449726 w(2)
       + 10.29535352 w(1) - 8.87237611 w(0) - z - pm(16) <= 14.57169881
 c131: tp(16) - pp(16) <= 0
 c132: tp(16) - 45 s(16) <= 0
 c133: tp(16) - pp(16) - 45 s(16) >= -45
 c134: tm(16) - pm(16) <= 0
 c135: tm(16) - 160 s(16) <= 0
 c136: tm(16) - pm(16) - 160 s(16) >= -160
 c137: - 0.82845938 w(8) + 0.44535772 w(7) - 1.21106647 w(6) - 0.56086247 w(5)
       + 1.5292223 w(4) + 1.41257878 w(3) + 0.19310511 w(2) - 0.05611002 w(1)
       + 0.06497728 w(0) + z - pp(17) <= 2.33488162
 c138: 0.82845938 w(8) - 0.44535772 w(7) + 1.21106647 w(6) + 0.56086247 w(5)
       - 1.5292223 w(4) - 1.41257878 w(3) - 0.19310511 w(2) + 0.05611002 w(1)
       - 0.06497728 w(0) - z - pm(17) <= -1.93488162
 c139: tp(17) - pp(17) <= 0
 c140: tp(17) - 45 s(17) <= 0
 c141: tp(17) - pp(17) - 45 s(17) >= -45
 c142: tm(17) - pm(17) <= 0
 c143: tm(17) - 160 s(17) <= 0
 c144: tm(17) - pm(17) - 160 s(17) >= -160
 c145: 1.30246734 w(8) - 1.80206619 w(7) + 1.6699305 w(6) + 1.0236702 w(5)
       - 1.83350835 w(4) + 0.23223316 w(3) - 1.15437743 w(2) + 0.10650421 w(1)
       - 1.14957588 w(0) + z - pp(18) <= -2.50348564
 c146: - 1.30246734 w(8) + 1.80206619 w(7) - 1.6699305 w(6) - 1.0236702 w(5)
       + 1.83350835 w(4) - 0.23223316 w(3) + 1.15437743 w(2) - 0.10650421 w(1)
       + 1.14957588 w(0) - z - pm(18) <= 2.90348564
 c147: tp(18) - pp(18) <= 0
 c148: tp(18) - 45 s(18) <= 0
 c149: tp(18) - pp(18) - 45 s(18) >= -45
 c150: tm(18) - pm(18) <= 0
 c151: tm(18) - 160 s(18) <= 0
 c152: tm(18) - pm(18) - 160 s(18) >= -160
 c153: - 0.57822472 w(8) + 0.14350019 w(7) + 0.5532609 w(6) + 0.27714937 w(5)
       - 0.38661796 w(4) - 0.72988227 w(3) - 0.52131877 w(2) + 0.88615429 w(1)
       - 1.0368224 w(0) + z - pp(19) <= -1.96088582
 c154: 0.57822472 w(8) - 0.14350019 w(7) - 0.5532609 w(6) - 0.27714937 w(5)
       + 0.38661796 w(4) + 0.72988227 w(3) + 0.52131877 w(2) - 0.88615429 w(1)
       + 1.0368224 w(0) - z - pm(19) <= 2.36088582
 c155: tp(19) - pp(19) <= 0
 c156: tp(19) - 45 s(19) <= 0
 c157: tp(19) - pp(19) - 45 s(19) >= -45
 c158: tm(19) - pm(19) <= 0
 c159: tm(19) - 160 s(19) <= 0
 c160: tm(19) - pm(19) - 160 s(19) >= -160
 c161: - 1.50183323 w(8) - 1.12025093 w(7) + 1.76221103 w(6) - 1.30724475 w(5)
       - 0.72530529 w(4) + 0.29583882 w(3) + 1.8124172 w(2) - 0.68457504 w(1)
       + 0.11833267 w(0) + z - pp(20) <= 0.78656291
 c162: 1.50183323 w(8) + 1.12025093 w(7) - 1.76221103 w(6) + 1.30724475 w(5)
       + 0.72530529 w(4) - 0.29583882 w(3) - 1.8124172 w(2) + 0.68457504 w(1)
       - 0.11833267 w(0) - z - pm(20) <= -0.38656291
 c163: tp(20) - pp(20) <= 0
 c164: tp(20) - 45 s(20) <= 0
 c165: tp(20) - pp(20) - 45 s(20) >= -45
 c166: tm(20) - pm(20) <= 0
 c167: tm(20) - 160 s(20) <= 0
 c168: tm(20) - pm(20) - 160 s(20) >= -160
 c169: - 1.03542739 w(8) + 0.97243122 w(7) + 0.20422703 w(6) - 0.53275882 w(5)
       - 1.12034341 w(4) + 0.84255063 w(3) + 0.55294663 w(2) + 1.50810927 w(1)
       + 0.43810201 w(0) + z - pp(21) <= 1.46815909
 c170: 1.03542739 w(8) - 0.97243122 w(7) - 0.20422703 w(6) + 0.53275882 w(5)
       + 1.12034341 w(4) - 0.84255063 w(3) - 0.55294663 w(2) - 1.50810927 w(1)
       - 0.43810201 w(0) - z - pm(21) <= -1.06815909
 c171: tp(21) - pp(21) <= 0
 c172: tp(21) - 45 s(21) <= 0
 c173: tp(21) - pp(21) - 45 s(21) >= -45
 c174: tm(21) - pm(21) <= 0
 c175: tm(21) - 160 s(21) <= 0
 c176: tm(21) - pm(21) - 160 s(21) >= -160
 c177: - 1.20206811 w(8) + 0.5735522 w(7) + 0.19720629 w(6) - 0.13789963 w(5)
       + 1.76435501 w(4) + 0.83745273 w(3) + 1.77378677 w(2) - 0.20279538 w(1)
       - 0.30758654 w(0) + z - pp(22) <= 5.1800854
 c178: 1.20206811 w(8) - 0.5735522 w(7) - 0.19720629 w(6) + 0.13789963 w(5)
       - 1.76435501 w(4) - 0.83745273 w(3) - 1.77378677 w(2) + 0.20279538 w(1)
       + 0.30758654 w(0) - z - pm(22) <= -4.7800854
 c179: tp(22) - pp(22) <= 0
 c180: tp(22) - 45 s(22) <= 0
 c181: tp(22) - pp(22) - 45 s(22) >= -45
 c182: tm(22) - pm(22) <= 0
 c183: tm(22) - 160 s(22) <= 0
 c184: tm(22) - pm(22) - 160 s(22) >= -160
 c185: - 1.43570437 w(8) + 0.57603963 w(7) - 0.21164007 w(6) - 0.66914883 w(5)
       - 0.2821693 w(4) - 0.38865674 w(3) - 0.6500303 w(2) + 1.65971593 w(1)
       - 0.16263884 w(0) + z - pp(23) <= 0.88914983
 c186: 1.43570437 w(8) - 0.57603963 w(7) + 0.21164007 w(6) + 0.66914883 w(5)
       + 0.2821693 w(4) + 0.38865674 w(3) + 0.6500303 w(2) - 1.65971593 w(1)
       + 0.16263884 w(0) - z - pm(23) <= -0.48914983
 c187: tp(23) - pp(23) <= 0
 c188: tp(23) - 45 s(23) <= 0
 c189: tp(23) - pp(23) - 45 s(23) >= -45
 c190: tm(23) - pm(23) <= 0
 c191: tm(23) - 160 s(23) <= 0
 c192: tm(23) - pm(23) - 160 s(23) >= -160
 c193: 0.87594729 w(8) - 0.5778186 w(7) + 0.72421 w(6) - 0.21898476 w(5)
       + 6.43379479 w(4) + 7.48934117 w(3) - 9.33470061 w(2) + 10.67167635 w(1)
       + 9.06899957 w(0) + z - pp(24) <= -12.80525265
 c194: - 0.87594729 w(8) + 0.5778186 w(7) - 0.72421 w(6) + 0.21898476 w(5)
       - 6.43379479 w(4) - 7.48934117 w(3) + 9.33470061 w(2) - 10.67167635 w(1)
       - 9.06899957 w(0) - z - pm(24) <= 13.20525265
 c195: tp(24) - pp(24) <= 0
 c196: tp(24) - 45 s(24) <= 0
 c197: tp(24) - pp(24) - 45 s(24) >= -45
 c198: tm(24) - pm(24) <= 0
 c199: tm(24) - 160 s(24) <= 0
 c200: tm(24) - pm(24) - 160 s(24) >= -160
 c201: 0.07360907 w(8) - 0.51786459 w(7) + 0.84043708 w(6) + 1.63115781 w(5)
       - 1.28637262 w(4) - 2.15202088 w(3) + 0.48417039 w(2) + 0.74906903 w(1)
       - 0.86766207 w(0) + z - pp(25) <= -1.40726183
 c202: - 0.07360907 w(8) + 0.51786459 w(7) - 0.84043708 w(6) - 1.63115781 w(5)
       + 1.28637262 w(4) + 2.15202088 w(3) - 0.48417039 w(2) - 0.74906903 w(1)
       + 0.86766207 w(0) - z - pm(25) <= 1.80726183
 c203: tp(25) - pp(25) <= 0
 c204: tp(25) - 45 s(25) <= 0
 c205: tp(25) - pp(25) - 45 s(25) >= -45
 c206: tm(25) - pm(25) <= 0
 c207: tm(25) - 160 s(25) <= 0
 c208: tm(25) - pm(25) - 160 s(25) >= -160
 c209: - 0.06655334 w(8) - 0.36182583 w(7) + 0.2676173 w(6) + 0.43883828 w(5)
       + 0.21925928 w(4) + 0.50066123 w(3) + 0.94017983 w(2) - 0.74363289 w(1)
       - 0.2216063 w(0) + z - pp(26) <= -0.37228147
 c210: 0.06655334 w(8) + 0.36182583 w(7) - 0.2676173 w(6) - 0.43883828 w(5)
       - 0.21925928 w(4) - 0.50066123 w(3) - 0.94017983 w(2) + 0.74363289 w(1)
       + 0.2216063 w(0) - z - pm(26) <= 0.77228147
 c211: tp(26) - pp(26) <= 0
 c212: tp(26) - 45 s(26) <= 0
 c213: tp(26) - pp(26) - 45 s(26) >= -45
 c214: tm(26) - pm(26) <= 0
 c215: tm(26) - 160 s(26) <= 0
 c216: tm(26) - pm(26) - 160 s(26) >= -160
 c217: 0.32806225 w(8) + 0.04661443 w(7) - 0.91846668 w(6) + 1.80946984 w(5)
       + 0.48964802 w(4) - 0.51461876 w(3) + 1.20520128 w(2) + 0.1032115 w(1)
       - 1.14454575 w(0) + z - pp(27) <= 3.37845094
 c218: - 0.32806225 w(8) - 0.04661443 w(7) + 0.91846668 w(6) - 1.80946984 w(5)
       - 0.48964802 w(4) + 0.51461876 w(3) - 1.20520128 w(2) - 0.1032115 w(1)
       + 1.14454575 w(0) - z - pm(27) <= -2.97845094
 c219: tp(27) - pp(27) <= 0
 c220: tp(27) - 45 s(27) <= 0
 c221: tp(27) - pp(27) - 45 s(27) >= -45
 c222: tm(27) - pm(27) <= 0
 c223: tm(27) - 160 s(27) <= 0
 c224: tm(27) - pm(27) - 160 s(27) >= -160
 c225: - 0.82726233 w(8) - 0.86538288 w(7) + 1.09051649 w(6) - 0.6789752 w(5)
       - 0.41684908 w(4) - 0.49157137 w(3) + 0.13996766 w(2) + 0.39848423 w(1)
       - 0.49456294 w(0) + z - pp(28) <= -2.02257108
 c226: 0.82726233 w(8) + 0.86538288 w(7) - 1.09051649 w(6) + 0.6789752 w(5)
       + 0.41684908 w(4) + 0.49157137 w(3) - 0.13996766 w(2) - 0.39848423 w(1)
       + 0.49456294 w(0) - z - pm(28) <= 2.42257108
 c227: tp(28) - pp(28) <= 0
 c228: tp(28) - 45 s(28) <= 0
 c229: tp(28) - pp(28) - 45 s(28) >= -45
 c230: tm(28) - pm(28) <= 0
 c231: tm(28) - 160 s(28) <= 0
 c232: tm(28) - pm(28) - 160 s(28) >= -160
 c233: 0.94720201 w(8) + 1.38426808 w(7) + 0.01425214 w(6) - 0.15913288 w(5)
       + 0.01755888 w(4) + 0.78601037 w(3) - 0.55911076 w(2) + 0.77999823 w(1)
       - 0.54407692 w(0) + z - pp(29) <= 1.04367012
 c234: - 0.94720201 w(8) - 1.38426808 w(7) - 0.01425214 w(6) + 0.15913288 w(5)
       - 0.01755888 w(4) - 0.78601037 w(3) + 0.55911076 w(2) - 0.77999823 w(1)
       + 0.54407692 w(0) - z - pm(29) <= -0.64367012
 c235: tp(29) - pp(29) <= 0
 c236: tp(29) - 45 s(29) <= 0
 c237: tp(29) - pp(29) - 45 s(29) >= -45
 c238: tm(29) - pm(29) <= 0
 c239: tm(29) - 160 s(29) <= 0
 c240: tm(29) - pm(29) - 160 s(29) >= -160
 c241: - 0.51184233 w(8) + 1.05783652 w(7) + 1.71164585 w(6) + 0.60040605 w(5)
       + 9.32159392 w(4) + 9.10858015 w(3) - 10.02613698 w(2)
       + 12.49466957 w(1) - 7.69558379 w(0) + z - pp(30) <= -6.73185051
 c242: 0.51184233 w(8) - 1.05783652 w(7) - 1.71164585 w(6) - 0.60040605 w(5)
       - 9.32159392 w(4) - 9.10858015 w(3) + 10.02613698 w(2)
       - 12.49466957 w(1) + 7.69558379 w(0) - z - pm(30) <= 7.13185051
 c243: tp(30) - pp(30) <= 0
 c244: tp(30) - 45 s(30) <= 0
 c245: tp(30) - pp(30) - 45 s(30) >= -45
 c246: tm(30) - pm(30) <= 0
 c247: tm(30) - 160 s(30) <= 0
 c248: tm(30) - pm(30) - 160 s(30) >= -160
 c249: - 1.0210683 w(8) + 0.7253691 w(7) - 0.3170336 w(6) - 1.24871762 w(5)
       + 1.35442693 w(4) + 1.19397032 w(3) - 0.14189488 w(2) - 0.4746694 w(1)
       - 0.67557827 w(0) + z - pp(31) <= 0.15863012
 c250: 1.0210683 w(8) - 0.7253691 w(7) + 0.3170336 w(6) + 1.24871762 w(5)
       - 1.35442693 w(4) - 1.19397032 w(3) + 0.14189488 w(2) + 0.4746694 w(1)
       + 0.67557827 w(0) - z - pm(31) <= 0.24136988
 c251: tp(31) - pp(31) <= 0
 c252: tp(31) - 45 s(31) <= 0
 c253: tp(31) - pp(31) - 45 s(31) >= -45
 c254: tm(31) - pm(31) <= 0
 c255: tm(31) - 160 s(31) <= 0
 c256: tm(31) - pm(31) - 160 s(31) >= -160
 c257: 0.33370513 w(8) - 0.04270315 w(7) + 2.0066029 w(6) - 0.22606103 w(5)
       - 0.69998905 w(4) - 0.59302245 w(3) + 1.87861578 w(2) + 0.32881039 w(1)
       - 0.19160165 w(0) + z - pp(32) <= 1.10121012
 c258: - 0.33370513 w(8) + 0.04270315 w(7) - 2.0066029 w(6) + 0.22606103 w(5)
       + 0.69998905 w(4) + 0.59302245 w(3) - 1.87861578 w(2) - 0.32881039 w(1)
       + 0.19160165 w(0) - z - pm(32) <= -0.70121012
 c259: tp(32) - pp(32) <= 0
 c260: tp(32) - 45 s(32) <= 0
 c261: tp(32) - pp(32) - 45 s(32) >= -45
 c262: tm(32) - pm(32) <= 0
 c263: tm(32) - 160 s(32) <= 0
 c264: tm(32) - pm(32) - 160 s(32) >= -160
 c265: 0.1007561 w(8) - 0.09912944 w(7) - 0.51371171 w(6) + 0.23586084 w(5)
       + 0.982057 w(4) - 0.48056045 w(3) + 1.28423666 w(2) + 1.01679747 w(1)
       - 1.179334 w(0) + z - pp(33) <= 2.51336224
 c266: - 0.1007561 w(8) + 0.09912944 w(7) + 0.51371171 w(6) - 0.23586084 w(5)
       - 0.982057 w(4) + 0.48056045 w(3) - 1.28423666 w(2) - 1.01679747 w(1)
       + 1.179334 w(0) - z - pm(33) <= -2.11336224
 c267: tp(33) - pp(33) <= 0
 c268: tp(33) - 45 s(33) <= 0
 c269: tp(33) - pp(33) - 45 s(33) >= -45
 c270: tm(33) - pm(33) <= 0
 c271: tm(33) - 160 s(33) <= 0
 c272: tm(33) - pm(33) - 160 s(33) >= -160
 c273: 0.6621524 w(8) - 0.42748936 w(7) + 1.2542612 w(6) - 1.1224274 w(5)
       + 0.82379184 w(4) + 0.3430894 w(3) + 2.9875575 w(2) + 0.41269407 w(1)
       + 0.26384345 w(0) + z - pp(34) <= 2.7317418
 c274: - 0.6621524 w(8) + 0.42748936 w(7) - 1.2542612 w(6) + 1.1224274 w(5)
       - 0.82379184 w(4) - 0.3430894 w(3) - 2.9875575 w(2) - 0.41269407 w(1)
       - 0.26384345 w(0) - z - pm(34) <= -2.3317418
 c275: tp(34) - pp(34) <= 0
 c276: tp(34) - 45 s(34) <= 0
 c277: tp(34) - pp(34) - 45 s(34) >= -45
 c278: tm(34) - pm(34) <= 0
 c279: tm(34) - 160 s(34) <= 0
 c280: tm(34) - pm(34) - 160 s(34) >= -160
 c281: - 0.83104957 w(8) + 1.64300647 w(7) - 0.52165435 w(6) + 0.43838619 w(5)
       + 0.00832705 w(4) - 0.86530448 w(3) + 1.32614001 w(2) - 0.48128663 w(1)
       + 0.39327399 w(0) + z - pp(35) <= 1.39275432
 c282: 0.83104957 w(8) - 1.64300647 w(7) + 0.52165435 w(6) - 0.43838619 w(5)
       - 0.00832705 w(4) + 0.86530448 w(3) - 1.32614001 w(2) + 0.48128663 w(1)
       - 0.39327399 w(0) - z - pm(35) <= -0.99275432
 c283: tp(35) - pp(35) <= 0
 c284: tp(35) - 45 s(35) <= 0
 c285: tp(35) - pp(35) - 45 s(35) >= -45
 c286: tm(35) - pm(35) <= 0
 c287: tm(35) - 160 s(35) <= 0
 c288: tm(35) - pm(35) - 160 s(35) >= -160
 c289: 0.7431796 w(8) - 0.71573026 w(7) - 0.05158407 w(6) - 0.21745034 w(5)
       - 11.01664187 w(4) - 12.02326627 w(3) - 10.5182238 w(2)
       + 8.29618523 w(1) - 6.82574108 w(0) + z - pp(36) <= -10.944049
 c290: - 0.7431796 w(8) + 0.71573026 w(7) + 0.05158407 w(6) + 0.21745034 w(5)
       + 11.01664187 w(4) + 12.02326627 w(3) + 10.5182238 w(2)
       - 8.29618523 w(1) + 6.82574108 w(0) - z - pm(36) <= 11.344049
 c291: tp(36) - pp(36) <= 0
 c292: tp(36) - 45 s(36) <= 0
 c293: tp(36) - pp(36) - 45 s(36) >= -45
 c294: tm(36) - pm(36) <= 0
 c295: tm(36) - 160 s(36) <= 0
 c296: tm(36) - pm(36) - 160 s(36) >= -160
 c297: - 1.49893931 w(8) - 1.05170603 w(7) + 0.06680104 w(6) + 0.51840723 w(5)
       - 0.67871196 w(4) + 0.69199875 w(3) - 0.06910936 w(2) + 0.23855789 w(1)
       - 1.27393762 w(0) + z - pp(37) <= -0.21403438
 c298: 1.49893931 w(8) + 1.05170603 w(7) - 0.06680104 w(6) - 0.51840723 w(5)
       + 0.67871196 w(4) - 0.69199875 w(3) + 0.06910936 w(2) - 0.23855789 w(1)
       + 1.27393762 w(0) - z - pm(37) <= 0.61403438
 c299: tp(37) - pp(37) <= 0
 c300: tp(37) - 45 s(37) <= 0
 c301: tp(37) - pp(37) - 45 s(37) >= -45
 c302: tm(37) - pm(37) <= 0
 c303: tm(37) - 160 s(37) <= 0
 c304: tm(37) - pm(37) - 160 s(37) >= -160
 c305: 0.17674206 w(8) - 1.68825514 w(7) - 2.33296425 w(6) - 2.24186051 w(5)
       + 0.14857542 w(4) - 1.00529598 w(3) + 1.75153215 w(2) + 0.83786834 w(1)
       + 0.42928824 w(0) + z - pp(38) <= -0.03674316
 c306: - 0.17674206 w(8) + 1.68825514 w(7) + 2.33296425 w(6) + 2.24186051 w(5)
       - 0.14857542 w(4) + 1.00529598 w(3) - 1.75153215 w(2) - 0.83786834 w(1)
       - 0.42928824 w(0) - z - pm(38) <= 0.43674316
 c307: tp(38) - pp(38) <= 0
 c308: tp(38) - 45 s(38) <= 0
 c309: tp(38) - pp(38) - 45 s(38) >= -45
 c310: tm(38) - pm(38) <= 0
 c311: tm(38) - 160 s(38) <= 0
 c312: tm(38) - pm(38) - 160 s(38) >= -160
 c313: 1.24407928 w(8) + 0.51110556 w(7) - 0.08384845 w(6) - 0.10182801 w(5)
       - 0.60532021 w(4) - 0.02038582 w(3) - 0.83560826 w(2) + 0.65828817 w(1)
       + 1.72304399 w(0) + z - pp(39) <= 1.29897529
 c314: - 1.24407928 w(8) - 0.51110556 w(7) + 0.08384845 w(6) + 0.10182801 w(5)
       + 0.60532021 w(4) + 0.02038582 w(3) + 0.83560826 w(2) - 0.65828817 w(1)
       - 1.72304399 w(0) - z - pm(39) <= -0.89897529
 c315: tp(39) - pp(39) <= 0
 c316: tp(39) - 45 s(39) <= 0
 c317: tp(39) - pp(39) - 45 s(39) >= -45
 c318: tm(39) - pm(39) <= 0
 c319: tm(39) - 160 s(39) <= 0
 c320: tm(39) - pm(39) - 160 s(39) >= -160
 c321: 0.29127126 w(8) - 0.12856185 w(7) + 0.15342738 w(6) - 0.15753992 w(5)
       - 0.48355113 w(4) - 0.57754159 w(3) - 0.31399531 w(2) + 0.2811381 w(1)
       + 0.7429245 w(0) + z - pp(40) <= 0.04115679
 c322: - 0.29127126 w(8) + 0.12856185 w(7) - 0.15342738 w(6) + 0.15753992 w(5)
       + 0.48355113 w(4) + 0.57754159 w(3) + 0.31399531 w(2) - 0.2811381 w(1)
       - 0.7429245 w(0) - z - pm(40) <= 0.35884321
 c323: tp(40) - pp(40) <= 0
 c324: tp(40) - 45 s(40) <= 0
 c325: tp(40) - pp(40) - 45 s(40) >= -45
 c326: tm(40) - pm(40) <= 0
 c327: tm(40) - 160 s(40) <= 0
 c328: tm(40) - pm(40) - 160 s(40) >= -160
 c329: - 0.87242926 w(8) + 0.72838172 w(7) + 0.30994778 w(6) + 0.08584269 w(5)
       + 1.39024868 w(4) + 0.33679718 w(3) + 0.60303483 w(2) - 1.49617285 w(1)
       - 1.92700988 w(0) + z - pp(41) <= -1.40205295
 c330: 0.87242926 w(8) - 0.72838172 w(7) - 0.30994778 w(6) - 0.08584269 w(5)
       - 1.39024868 w(4) - 0.33679718 w(3) - 0.60303483 w(2) + 1.49617285 w(1)
       + 1.92700988 w(0) - z - pm(41) <= 1.80205295
 c331: tp(41) - pp(41) <= 0
 c332: tp(41) - 45 s(41) <= 0
 c333: tp(41) - pp(41) - 45 s(41) >= -45
 c334: tm(41) - pm(41) <= 0
 c335: tm(41) - 160 s(41) <= 0
 c336: tm(41) - pm(41) - 160 s(41) >= -160
 c337: 0.62561856 w(8) - 1.82649377 w(7) + 0.64763495 w(6) - 1.49920766 w(5)
       - 0.3868654 w(4) - 1.29107111 w(3) - 1.70311721 w(2) + 1.24449921 w(1)
       - 0.62187743 w(0) + z - pp(42) <= -3.09203863
 c338: - 0.62561856 w(8) + 1.82649377 w(7) - 0.64763495 w(6) + 1.49920766 w(5)
       + 0.3868654 w(4) + 1.29107111 w(3) + 1.70311721 w(2) - 1.24449921 w(1)
       + 0.62187743 w(0) - z - pm(42) <= 3.49203863
 c339: tp(42) - pp(42) <= 0
 c340: tp(42) - 45 s(42) <= 0
 c341: tp(42) - pp(42) - 45 s(42) >= -45
 c342: tm(42) - pm(42) <= 0
 c343: tm(42) - 160 s(42) <= 0
 c344: tm(42) - pm(42) - 160 s(42) >= -160
 c345: 0.41468125 w(8) - 1.32407754 w(7) + 1.3268354 w(6) - 0.99324279 w(5)
       + 2.23775682 w(4) + 0.41207357 w(3) + 0.54095288 w(2) + 0.93981158 w(1)
       - 0.88688748 w(0) + z - pp(43) <= 2.31909254
 c346: - 0.41468125 w(8) + 1.32407754 w(7) - 1.3268354 w(6) + 0.99324279 w(5)
       - 2.23775682 w(4) - 0.41207357 w(3) - 0.54095288 w(2) - 0.93981158 w(1)
       + 0.88688748 w(0) - z - pm(43) <= -1.91909254
 c347: tp(43) - pp(43) <= 0
 c348: tp(43) - 45 s(43) <= 0
 c349: tp(43) - pp(43) - 45 s(43) >= -45
 c350: tm(43) - pm(43) <= 0
 c351: tm(43) - 160 s(43) <= 0
 c352: tm(43) - pm(43) - 160 s(43) >= -160
 c353: - 0.94129237 w(8) + 0.74192759 w(7) - 0.50817105 w(6) + 0.97045459 w(5)
       + 2.18303247 w(4) + 0.41822966 w(3) + 0.11908695 w(2) + 1.51462616 w(1)
       + 1.66479969 w(0) + z - pp(44) <= 7.78959925
 c354: 0.94129237 w(8) - 0.74192759 w(7) + 0.50817105 w(6) - 0.97045459 w(5)
       - 2.18303247 w(4) - 0.41822966 w(3) - 0.11908695 w(2) - 1.51462616 w(1)
       - 1.66479969 w(0) - z - pm(44) <= -7.38959925
 c355: tp(44) - pp(44) <= 0
 c356: tp(44) - 45 s(44) <= 0
 c357: tp(44) - pp(44) - 45 s(44) >= -45
 c358: tm(44) - pm(44) <= 0
 c359: tm(44) - 160 s(44) <= 0
 c360: tm(44) - pm(44) - 160 s(44) >= -160
 c361: - 0.82791432 w(8) + 1.22766407 w(7) - 0.73593853 w(6) - 0.43539191 w(5)
       + 0.13581596 w(4) + 0.75725439 w(3) - 0.54618096 w(2) + 0.07481545 w(1)
       + 1.51235288 w(0) + z - pp(45) <= 3.62320184
 c362: 0.82791432 w(8) - 1.22766407 w(7) + 0.73593853 w(6) + 0.43539191 w(5)
       - 0.13581596 w(4) - 0.75725439 w(3) + 0.54618096 w(2) - 0.07481545 w(1)
       - 1.51235288 w(0) - z - pm(45) <= -3.22320184
 c363: tp(45) - pp(45) <= 0
 c364: tp(45) - 45 s(45) <= 0
 c365: tp(45) - pp(45) - 45 s(45) >= -45
 c366: tm(45) - pm(45) <= 0
 c367: tm(45) - 160 s(45) <= 0
 c368: tm(45) - pm(45) - 160 s(45) >= -160
 c369: - 0.99816433 w(8) + 0.98776295 w(7) - 2.11129084 w(6) - 0.10076618 w(5)
       - 1.72143529 w(4) + 0.60201122 w(3) - 1.40017412 w(2) + 0.96076752 w(1)
       - 1.43642998 w(0) + z - pp(46) <= -3.78946484
 c370: 0.99816433 w(8) - 0.98776295 w(7) + 2.11129084 w(6) + 0.10076618 w(5)
       + 1.72143529 w(4) - 0.60201122 w(3) + 1.40017412 w(2) - 0.96076752 w(1)
       + 1.43642998 w(0) - z - pm(46) <= 4.18946484
 c371: tp(46) - pp(46) <= 0
 c372: tp(46) - 45 s(46) <= 0
 c373: tp(46) - pp(46) - 45 s(46) >= -45
 c374: tm(46) - pm(46) <= 0
 c375: tm(46) - 160 s(46) <= 0
 c376: tm(46) - pm(46) - 160 s(46) >= -160
 c377: 0.97875315 w(8) - 0.75212784 w(7) - 0.24509617 w(6) - 0.63036987 w(5)
       - 0.06957976 w(4) - 0.33380126 w(3) + 0.36615201 w(2) - 0.07210523 w(1)
       + 0.58821181 w(0) + z - pp(47) <= -0.86080883
 c378: - 0.97875315 w(8) + 0.75212784 w(7) + 0.24509617 w(6) + 0.63036987 w(5)
       + 0.06957976 w(4) + 0.33380126 w(3) - 0.36615201 w(2) + 0.07210523 w(1)
       - 0.58821181 w(0) - z - pm(47) <= 1.26080883
 c379: tp(47) - pp(47) <= 0
 c380: tp(47) - 45 s(47) <= 0
 c381: tp(47) - pp(47) - 45 s(47) >= -45
 c382: tm(47) - pm(47) <= 0
 c383: tm(47) - 160 s(47) <= 0
 c384: tm(47) - pm(47) - 160 s(47) >= -160
 c385: - 0.677171 w(8) - 1.57008294 w(7) + 0.20368848 w(6) + 2.29106071 w(5)
       + 1.58117258 w(4) + 1.91452929 w(3) - 0.01250431 w(2) - 1.24633113 w(1)
       - 1.36841909 w(0) + z - pp(48) <= 1.21672806
 c386: 0.677171 w(8) + 1.57008294 w(7) - 0.20368848 w(6) - 2.29106071 w(5)
       - 1.58117258 w(4) - 1.91452929 w(3) + 0.01250431 w(2) + 1.24633113 w(1)
       + 1.36841909 w(0) - z - pm(48) <= -0.81672806
 c387: tp(48) - pp(48) <= 0
 c388: tp(48) - 45 s(48) <= 0
 c389: tp(48) - pp(48) - 45 s(48) >= -45
 c390: tm(48) - pm(48) <= 0
 c391: tm(48) - 160 s(48) <= 0
 c392: tm(48) - pm(48) - 160 s(48) >= -160
 c393: - 0.000904873411 w(8) + 0.073903047 w(7) - 1.34715864 w(6)
       - 0.841252377 w(5) + 1.7853448 w(4) + 0.613200312 w(3)
       + 0.842789335 w(2) + 0.900776731 w(1) + 0.572278067 w(0) + z - pp(49)
       <= 3.95607732
 c394: 0.000904873411 w(8) - 0.073903047 w(7) + 1.34715864 w(6)
       + 0.841252377 w(5) - 1.7853448 w(4) - 0.613200312 w(3)
       - 0.842789335 w(2) - 0.900776731 w(1) - 0.572278067 w(0) - z - pm(49)
       <= -3.55607732
 c395: tp(49) - pp(49) <= 0
 c396: tp(49) - 45 s(49) <= 0
 c397: tp(49) - pp(49) - 45 s(49) >= -45
 c398: tm(49) - pm(49) <= 0
 c399: tm(49) - 160 s(49) <= 0
 c400: tm(49) - pm(49) - 160 s(49) >= -160
 c401: w(0) - 30 f(0) <= 0
 c402: w(0) + 10 f(0) >= 0
 c403: w(1) - 30 f(1) <= 0
 c404: w(1) + 10 f(1) >= 0
 c405: w(2) - 30 f(2) <= 0
 c406: w(2) + 10 f(2) >= 0
 c407: w(3) - 30 f(3) <= 0
 c408: w(3) + 10 f(3) >= 0
 c409: w(4) - 20 f(4) <= 0
 c410: w(4) + 20 f(4) >= 0
 c411: w(5) - 20 f(5) <= 0
 c412: w(5) + 20 f(5) >= 0
 c413: w(6) - 20 f(6) <= 0
 c414: w(6) + 20 f(6) >= 0
 c415: w(7) - 20 f(7) <= 0
 c416: w(7) + 20 f(7) >= 0
 c417: w(8) - 20 f(8) <= 0
 c418: w(8) + 20 f(8) >= 0
 c419: f(0) + f(1) + f(2) + f(3) + f(4) + f(5) + f(6) + f(7) + f(8) <= 4
 c420: s(0) + s(1) + s(2) + s(3) + s(4) + s(5) + s(6) + s(7) + s(8) + s(9)
       + s(10) + s(11) + s(12) + s(13) + s(14) + s(15) + s(16) + s(17) + s(18)
       + s(19) + s(20) + s(21) + s(22) + s(23) + s(24) + s(25) + s(26) + s(27)
       + s(28) + s(29) + s(30) + s(31) + s(32) + s(33) + s(34) + s(35) + s(36)
       + s(37) + s(38) + s(39) + s(40) + s(41) + s(42) + s(43) + s(44) + s(45)
       + s(46) + s(47) + s(48) + s(49) >= 45
Bounds
      w(8) Free
      w(7) Free
      w(6) Free
      w(5) Free
      w(4) Free
      w(3) Free
      w(2) Free
      w(1) Free
      w(0) Free
      z Free
 0 <= s(0) <= 1
 0 <= s(1) <= 1
 0 <= s(2) <= 1
 0 <= s(3) <= 1
 0 <= s(4) <= 1
 0 <= s(5) <= 1
 0 <= s(6) <= 1
 0 <= s(7) <= 1
 0 <= s(8) <= 1
 0 <= s(9) <= 1
 0 <= s(10) <= 1
 0 <= s(11) <= 1
 0 <= s(12) <= 1
 0 <= s(13) <= 1
 0 <= s(14) <= 1
 0 <= s(15) <= 1
 0 <= s(16) <= 1
 0 <= s(17) <= 1
 0 <= s(18) <= 1
 0 <= s(19) <= 1
 0 <= s(20) <= 1
 0 <= s(21) <= 1
 0 <= s(22) <= 1
 0 <= s(23) <= 1
 0 <= s(24) <= 1
 0 <= s(25) <= 1
 0 <= s(26) <= 1
 0 <= s(27) <= 1
 0 <= s(28) <= 1
 0 <= s(29) <= 1
 0 <= s(30) <= 1
 0 <= s(31) <= 1
 0 <= s(32) <= 1
 0 <= s(33) <= 1
 0 <= s(34) <= 1
 0 <= s(35) <= 1
 0 <= s(36) <= 1
 0 <= s(37) <= 1
 0 <= s(38) <= 1
 0 <= s(39) <= 1
 0 <= s(40) <= 1
 0 <= s(41) <= 1
 0 <= s(42) <= 1
 0 <= s(43) <= 1
 0 <= s(44) <= 1
 0 <= s(45) <= 1
 0 <= s(46) <= 1
 0 <= s(47) <= 1
 0 <= s(48) <= 1
 0 <= s(49) <= 1
 0 <= f(0) <= 1
 0 <= f(1) <= 1
 0 <= f(2) <= 1
 0 <= f(3) <= 1
 0 <= f(4) <= 1
 0 <= f(5) <= 1
 0 <= f(6) <= 1
 0 <= f(7) <= 1
 0 <= f(8) <= 1
Binaries
 s(0)  s(1)  s(2)  s(3)  s(4)  s(5)  s(6)  s(7)  s(8)  s(9)  s(10)  s(11) 
 s(12)  s(13)  s(14)  s(15)  s(16)  s(17)  s(18)  s(19)  s(20)  s(21)  s(22) 
 s(23)  s(24)  s(25)  s(26)  s(27)  s(28)  s(29)  s(30)  s(31)  s(32)  s(33) 
 s(34)  s(35)  s(36)  s(37)  s(38)  s(39)  s(40)  s(41)  s(42)  s(43)  s(44) 
 s(45)  s(46)  s(47)  s(48)  s(49)  f(0)  f(1)  f(2)  f(3)  f(4)  f(5)  f(6) 
 f(7)  f(8) 
End
